nNurses = 141;
nHours = 28;
minHours = 10;
maxHours = 19;
maxConsec = 11;
maxPresence = 14;
demand = [29, 34, 31, 33, 28, 23, 19, 23, 18, 20, 20, 16, 12, 7, 5, 8, 9, 5, 6, 6, 6, 6, 9, 8, 5, 9, 9, 10];
